Minimize
b_2 + b_7 + b_16 + b_29 + b_1 + b_6 + b_45 + b_28 + b_0 + b_5 + b_53 + b_27 + b_39 + b_4 + b_61 + b_26 + b_47 + b_3 + b_69 + b_25
Subject To
b_31 + b_32 + b_39 - 2 d_0 >= 0
d_0 - b_31 >= 0
d_0 - b_32 >= 0
d_0 - b_39 >= 0
b_32 + b_2 + b_40 - 2 d_1 >= 0
d_1 - b_32 >= 0
d_1 - b_2 >= 0
d_1 - b_40 >= 0
b_33 + b_7 + b_41 - 2 d_2 >= 0
d_2 - b_33 >= 0
d_2 - b_7 >= 0
d_2 - b_41 >= 0
b_37 + b_16 + b_42 - 2 d_3 >= 0
d_3 - b_37 >= 0
d_3 - b_16 >= 0
d_3 - b_42 >= 0
b_38 + b_29 + b_43 - 2 d_4 >= 0
d_4 - b_38 >= 0
d_4 - b_29 >= 0
d_4 - b_43 >= 0
b_2 + b_6 + b_44 - 2 d_5 >= 0
d_5 - b_2 >= 0
d_5 - b_6 >= 0
d_5 - b_44 >= 0
b_7 + b_15 + b_45 - 2 d_6 >= 0
d_6 - b_7 >= 0
d_6 - b_15 >= 0
d_6 - b_45 >= 0
b_16 + b_28 + b_46 - 2 d_7 >= 0
d_7 - b_16 >= 0
d_7 - b_28 >= 0
d_7 - b_46 >= 0
b_30 + b_42 + b_47 - 2 d_8 >= 0
d_8 - b_30 >= 0
d_8 - b_42 >= 0
d_8 - b_47 >= 0
b_42 + b_1 + b_48 - 2 d_9 >= 0
d_9 - b_42 >= 0
d_9 - b_1 >= 0
d_9 - b_48 >= 0
b_43 + b_6 + b_49 - 2 d_10 >= 0
d_10 - b_43 >= 0
d_10 - b_6 >= 0
d_10 - b_49 >= 0
b_37 + b_45 + b_50 - 2 d_11 >= 0
d_11 - b_37 >= 0
d_11 - b_45 >= 0
d_11 - b_50 >= 0
b_38 + b_28 + b_51 - 2 d_12 >= 0
d_12 - b_38 >= 0
d_12 - b_28 >= 0
d_12 - b_51 >= 0
b_1 + b_5 + b_52 - 2 d_13 >= 0
d_13 - b_1 >= 0
d_13 - b_5 >= 0
d_13 - b_52 >= 0
b_6 + b_14 + b_53 - 2 d_14 >= 0
d_14 - b_6 >= 0
d_14 - b_14 >= 0
d_14 - b_53 >= 0
b_45 + b_27 + b_54 - 2 d_15 >= 0
d_15 - b_45 >= 0
d_15 - b_27 >= 0
d_15 - b_54 >= 0
b_29 + b_50 + b_55 - 2 d_16 >= 0
d_16 - b_29 >= 0
d_16 - b_50 >= 0
d_16 - b_55 >= 0
b_50 + b_0 + b_56 - 2 d_17 >= 0
d_17 - b_50 >= 0
d_17 - b_0 >= 0
d_17 - b_56 >= 0
b_51 + b_5 + b_57 - 2 d_18 >= 0
d_18 - b_51 >= 0
d_18 - b_5 >= 0
d_18 - b_57 >= 0
b_37 + b_53 + b_58 - 2 d_19 >= 0
d_19 - b_37 >= 0
d_19 - b_53 >= 0
d_19 - b_58 >= 0
b_38 + b_27 + b_59 - 2 d_20 >= 0
d_20 - b_38 >= 0
d_20 - b_27 >= 0
d_20 - b_59 >= 0
b_0 + b_4 + b_60 - 2 d_21 >= 0
d_21 - b_0 >= 0
d_21 - b_4 >= 0
d_21 - b_60 >= 0
b_5 + b_13 + b_61 - 2 d_22 >= 0
d_22 - b_5 >= 0
d_22 - b_13 >= 0
d_22 - b_61 >= 0
b_53 + b_26 + b_62 - 2 d_23 >= 0
d_23 - b_53 >= 0
d_23 - b_26 >= 0
d_23 - b_62 >= 0
b_28 + b_58 + b_63 - 2 d_24 >= 0
d_24 - b_28 >= 0
d_24 - b_58 >= 0
d_24 - b_63 >= 0
b_58 + b_39 + b_64 - 2 d_25 >= 0
d_25 - b_58 >= 0
d_25 - b_39 >= 0
d_25 - b_64 >= 0
b_59 + b_4 + b_65 - 2 d_26 >= 0
d_26 - b_59 >= 0
d_26 - b_4 >= 0
d_26 - b_65 >= 0
b_37 + b_61 + b_66 - 2 d_27 >= 0
d_27 - b_37 >= 0
d_27 - b_61 >= 0
d_27 - b_66 >= 0
b_38 + b_26 + b_67 - 2 d_28 >= 0
d_28 - b_38 >= 0
d_28 - b_26 >= 0
d_28 - b_67 >= 0
b_39 + b_3 + b_68 - 2 d_29 >= 0
d_29 - b_39 >= 0
d_29 - b_3 >= 0
d_29 - b_68 >= 0
b_4 + b_12 + b_69 - 2 d_30 >= 0
d_30 - b_4 >= 0
d_30 - b_12 >= 0
d_30 - b_69 >= 0
b_61 + b_25 + b_70 - 2 d_31 >= 0
d_31 - b_61 >= 0
d_31 - b_25 >= 0
d_31 - b_70 >= 0
Binary
b_0
b_1
b_2
b_3
b_4
b_5
b_6
b_7
b_8
b_9
b_10
b_11
b_12
b_13
b_14
b_15
b_16
b_17
b_18
b_19
b_20
b_21
b_22
b_23
b_24
b_25
b_26
b_27
b_28
b_29
b_30
b_31
b_32
b_33
b_34
b_35
b_36
b_37
b_38
b_39
b_40
b_41
b_42
b_43
b_44
b_45
b_46
b_47
b_48
b_49
b_50
b_51
b_52
b_53
b_54
b_55
b_56
b_57
b_58
b_59
b_60
b_61
b_62
b_63
b_64
b_65
b_66
b_67
b_68
b_69
b_70
d_0
d_1
d_2
d_3
d_4
d_5
d_6
d_7
d_8
d_9
d_10
d_11
d_12
d_13
d_14
d_15
d_16
d_17
d_18
d_19
d_20
d_21
d_22
d_23
d_24
d_25
d_26
d_27
d_28
d_29
d_30
d_31
END